db/inputs/149761560426215432727824173692990612902.smt2
(set-logic QF_FP)
(declare-const x0 (_ FloatingPoint 11 53))
(declare-const x1 (_ FloatingPoint 11 53))
(declare-const x2 (_ FloatingPoint 11 53))
(declare-const x3 (_ FloatingPoint 11 53))
(declare-const x4 (_ FloatingPoint 11 53))
(declare-const x5 (_ FloatingPoint 11 53))
(declare-const x6 (_ FloatingPoint 11 53))
(declare-const x7 (_ FloatingPoint 11 53))
(declare-const x8 (_ FloatingPoint 11 53))
(declare-const x9 (_ FloatingPoint 11 53))
(declare-const x10 (_ FloatingPoint 11 53))
(declare-const x11 (_ FloatingPoint 11 53))
(declare-const x12 (_ FloatingPoint 11 53))
(declare-const x13 (_ FloatingPoint 11 53))
(declare-const x14 (_ FloatingPoint 11 53))
(declare-const x15 (_ FloatingPoint 11 53))
(declare-const x16 (_ FloatingPoint 11 53))
(declare-const x17 (_ FloatingPoint 11 53))
(assert (fp.leq (fp.sub RNE (fp.mul RNE (fp.div RNE x9 x0) (fp.sub RNE x4 x3)) (fp.div RNE (fp.div RNE x2 x3) (fp.div RNE x15 x14))) (fp.add RNE (fp.add RNE (fp.sub RNE x13 x9) (fp.div RNE x17 x11)) (fp.add RNE (fp.div RNE x11 x1) (fp.div RNE x11 x14)))))
(assert (fp.eq (fp.mul RNE (fp.div RNE (fp.add RNE x11 x2) (fp.mul RNE x17 x10)) (fp.neg (fp.sub RNE x9 x13))) (fp.sub RNE (fp.mul RNE (fp.neg x3) (fp.sub RNE x1 x12)) (fp.div RNE (fp.div RNE x12 x13) (fp.mul RNE x7 x8)))))
(assert (fp.gt (fp.div RNE (fp.mul RNE (fp.sub RNE x16 x15) (fp.mul RNE x16 x11)) (fp.mul RNE (fp.sub RNE x2 x10) (fp.neg x10))) (fp.sub RNE (fp.div RNE (fp.mul RNE x10 x17) (fp.div RNE x14 x5)) (fp.add RNE (fp.add RNE x6 x10) (fp.add RNE x11 x9)))))
(assert (fp.gt (fp.add RNE (fp.add RNE (fp.div RNE x8 x5) (fp.sub RNE x7 x13)) (fp.mul RNE (fp.mul RNE x11 x9) (fp.mul RNE x2 x10))) (fp.neg (fp.div RNE (fp.neg x10) (fp.add RNE x3 x5)))))
(assert (fp.geq (fp.add RNE (fp.neg (fp.mul RNE x17 x1)) (fp.div RNE (fp.mul RNE x5 x2) (fp.neg x12))) (fp.mul RNE (fp.neg (fp.neg x7)) (fp.mul RNE (fp.div RNE x12 x7) (fp.sub RNE x7 x15)))))
(assert (fp.gt (fp.neg (fp.add RNE (fp.add RNE x6 x6) (fp.div RNE x15 x15))) (fp.mul RNE (fp.div RNE (fp.add RNE x2 x0) (fp.add RNE x9 x16)) (fp.neg (fp.add RNE x8 x0)))))
(check-sat)
