db/data/149761560426215432727824173692990612902.z3.out
-------------------
2500.137536642
